Minimize
    r
Subject to
demand volume: 
x111 + x121 + x131 + x141 + x151 + x161 = 2
x112 + x122 + x132 + x142 + x152 + x162 = 3
x113 + x123 + x133 + x143 + x153 + x163 = 4
x114 + x124 + x134 + x144 + x154 + x164 = 5
x115 + x125 + x135 + x145 + x155 + x165 = 6
x116 + x126 + x136 + x146 + x156 + x166 = 7
x117 + x127 + x137 + x147 + x157 + x167 = 8
x211 + x221 + x231 + x241 + x251 + x261 = 3
x212 + x222 + x232 + x242 + x252 + x262 = 4
x213 + x223 + x233 + x243 + x253 + x263 = 5
x214 + x224 + x234 + x244 + x254 + x264 = 6
x215 + x225 + x235 + x245 + x255 + x265 = 7
x216 + x226 + x236 + x246 + x256 + x266 = 8
x217 + x227 + x237 + x247 + x257 + x267 = 9
x311 + x321 + x331 + x341 + x351 + x361 = 4
x312 + x322 + x332 + x342 + x352 + x362 = 5
x313 + x323 + x333 + x343 + x353 + x363 = 6
x314 + x324 + x334 + x344 + x354 + x364 = 7
x315 + x325 + x335 + x345 + x355 + x365 = 8
x316 + x326 + x336 + x346 + x356 + x366 = 9
x317 + x327 + x337 + x347 + x357 + x367 = 10
x411 + x421 + x431 + x441 + x451 + x461 = 5
x412 + x422 + x432 + x442 + x452 + x462 = 6
x413 + x423 + x433 + x443 + x453 + x463 = 7
x414 + x424 + x434 + x444 + x454 + x464 = 8
x415 + x425 + x435 + x445 + x455 + x465 = 9
x416 + x426 + x436 + x446 + x456 + x466 = 10
x417 + x427 + x437 + x447 + x457 + x467 = 11
x511 + x521 + x531 + x541 + x551 + x561 = 6
x512 + x522 + x532 + x542 + x552 + x562 = 7
x513 + x523 + x533 + x543 + x553 + x563 = 8
x514 + x524 + x534 + x544 + x554 + x564 = 9
x515 + x525 + x535 + x545 + x555 + x565 = 10
x516 + x526 + x536 + x546 + x556 + x566 = 11
x517 + x527 + x537 + x547 + x557 + x567 = 12
x611 + x621 + x631 + x641 + x651 + x661 = 7
x612 + x622 + x632 + x642 + x652 + x662 = 8
x613 + x623 + x633 + x643 + x653 + x663 = 9
x614 + x624 + x634 + x644 + x654 + x664 = 10
x615 + x625 + x635 + x645 + x655 + x665 = 11
x616 + x626 + x636 + x646 + x656 + x666 = 12
x617 + x627 + x637 + x647 + x657 + x667 = 13
x711 + x721 + x731 + x741 + x751 + x761 = 8
x712 + x722 + x732 + x742 + x752 + x762 = 9
x713 + x723 + x733 + x743 + x753 + x763 = 10
x714 + x724 + x734 + x744 + x754 + x764 = 11
x715 + x725 + x735 + x745 + x755 + x765 = 12
x716 + x726 + x736 + x746 + x756 + x766 = 13
x717 + x727 + x737 + x747 + x757 + x767 = 14
srouce to tranfer node capp1: 
x111 + x112 + x113 + x114 + x115 + x116 + x117 - c11 <= 0
x121 + x122 + x123 + x124 + x125 + x126 + x127 - c12 <= 0
x131 + x132 + x133 + x134 + x135 + x136 + x137 - c13 <= 0
x141 + x142 + x143 + x144 + x145 + x146 + x147 - c14 <= 0
x151 + x152 + x153 + x154 + x155 + x156 + x157 - c15 <= 0
x161 + x162 + x163 + x164 + x165 + x166 + x167 - c16 <= 0
x211 + x212 + x213 + x214 + x215 + x216 + x217 - c21 <= 0
x221 + x222 + x223 + x224 + x225 + x226 + x227 - c22 <= 0
x231 + x232 + x233 + x234 + x235 + x236 + x237 - c23 <= 0
x241 + x242 + x243 + x244 + x245 + x246 + x247 - c24 <= 0
x251 + x252 + x253 + x254 + x255 + x256 + x257 - c25 <= 0
x261 + x262 + x263 + x264 + x265 + x266 + x267 - c26 <= 0
x311 + x312 + x313 + x314 + x315 + x316 + x317 - c31 <= 0
x321 + x322 + x323 + x324 + x325 + x326 + x327 - c32 <= 0
x331 + x332 + x333 + x334 + x335 + x336 + x337 - c33 <= 0
x341 + x342 + x343 + x344 + x345 + x346 + x347 - c34 <= 0
x351 + x352 + x353 + x354 + x355 + x356 + x357 - c35 <= 0
x361 + x362 + x363 + x364 + x365 + x366 + x367 - c36 <= 0
x411 + x412 + x413 + x414 + x415 + x416 + x417 - c41 <= 0
x421 + x422 + x423 + x424 + x425 + x426 + x427 - c42 <= 0
x431 + x432 + x433 + x434 + x435 + x436 + x437 - c43 <= 0
x441 + x442 + x443 + x444 + x445 + x446 + x447 - c44 <= 0
x451 + x452 + x453 + x454 + x455 + x456 + x457 - c45 <= 0
x461 + x462 + x463 + x464 + x465 + x466 + x467 - c46 <= 0
x511 + x512 + x513 + x514 + x515 + x516 + x517 - c51 <= 0
x521 + x522 + x523 + x524 + x525 + x526 + x527 - c52 <= 0
x531 + x532 + x533 + x534 + x535 + x536 + x537 - c53 <= 0
x541 + x542 + x543 + x544 + x545 + x546 + x547 - c54 <= 0
x551 + x552 + x553 + x554 + x555 + x556 + x557 - c55 <= 0
x561 + x562 + x563 + x564 + x565 + x566 + x567 - c56 <= 0
x611 + x612 + x613 + x614 + x615 + x616 + x617 - c61 <= 0
x621 + x622 + x623 + x624 + x625 + x626 + x627 - c62 <= 0
x631 + x632 + x633 + x634 + x635 + x636 + x637 - c63 <= 0
x641 + x642 + x643 + x644 + x645 + x646 + x647 - c64 <= 0
x651 + x652 + x653 + x654 + x655 + x656 + x657 - c65 <= 0
x661 + x662 + x663 + x664 + x665 + x666 + x667 - c66 <= 0
x711 + x712 + x713 + x714 + x715 + x716 + x717 - c71 <= 0
x721 + x722 + x723 + x724 + x725 + x726 + x727 - c72 <= 0
x731 + x732 + x733 + x734 + x735 + x736 + x737 - c73 <= 0
x741 + x742 + x743 + x744 + x745 + x746 + x747 - c74 <= 0
x751 + x752 + x753 + x754 + x755 + x756 + x757 - c75 <= 0
x761 + x762 + x763 + x764 + x765 + x766 + x767 - c76 <= 0
transit to destination node capp2: 
x111 + x211 + x311 + x411 + x511 + x611 + x711 - d11 <= 0
x112 + x212 + x312 + x412 + x512 + x612 + x712 - d12 <= 0
x113 + x213 + x313 + x413 + x513 + x613 + x713 - d13 <= 0
x114 + x214 + x314 + x414 + x514 + x614 + x714 - d14 <= 0
x115 + x215 + x315 + x415 + x515 + x615 + x715 - d15 <= 0
x116 + x216 + x316 + x416 + x516 + x616 + x716 - d16 <= 0
x117 + x217 + x317 + x417 + x517 + x617 + x717 - d17 <= 0
x121 + x221 + x321 + x421 + x521 + x621 + x721 - d21 <= 0
x122 + x222 + x322 + x422 + x522 + x622 + x722 - d22 <= 0
x123 + x223 + x323 + x423 + x523 + x623 + x723 - d23 <= 0
x124 + x224 + x324 + x424 + x524 + x624 + x724 - d24 <= 0
x125 + x225 + x325 + x425 + x525 + x625 + x725 - d25 <= 0
x126 + x226 + x326 + x426 + x526 + x626 + x726 - d26 <= 0
x127 + x227 + x327 + x427 + x527 + x627 + x727 - d27 <= 0
x131 + x231 + x331 + x431 + x531 + x631 + x731 - d31 <= 0
x132 + x232 + x332 + x432 + x532 + x632 + x732 - d32 <= 0
x133 + x233 + x333 + x433 + x533 + x633 + x733 - d33 <= 0
x134 + x234 + x334 + x434 + x534 + x634 + x734 - d34 <= 0
x135 + x235 + x335 + x435 + x535 + x635 + x735 - d35 <= 0
x136 + x236 + x336 + x436 + x536 + x636 + x736 - d36 <= 0
x137 + x237 + x337 + x437 + x537 + x637 + x737 - d37 <= 0
x141 + x241 + x341 + x441 + x541 + x641 + x741 - d41 <= 0
x142 + x242 + x342 + x442 + x542 + x642 + x742 - d42 <= 0
x143 + x243 + x343 + x443 + x543 + x643 + x743 - d43 <= 0
x144 + x244 + x344 + x444 + x544 + x644 + x744 - d44 <= 0
x145 + x245 + x345 + x445 + x545 + x645 + x745 - d45 <= 0
x146 + x246 + x346 + x446 + x546 + x646 + x746 - d46 <= 0
x147 + x247 + x347 + x447 + x547 + x647 + x747 - d47 <= 0
x151 + x251 + x351 + x451 + x551 + x651 + x751 - d51 <= 0
x152 + x252 + x352 + x452 + x552 + x652 + x752 - d52 <= 0
x153 + x253 + x353 + x453 + x553 + x653 + x753 - d53 <= 0
x154 + x254 + x354 + x454 + x554 + x654 + x754 - d54 <= 0
x155 + x255 + x355 + x455 + x555 + x655 + x755 - d55 <= 0
x156 + x256 + x356 + x456 + x556 + x656 + x756 - d56 <= 0
x157 + x257 + x357 + x457 + x557 + x657 + x757 - d57 <= 0
x161 + x261 + x361 + x461 + x561 + x661 + x761 - d61 <= 0
x162 + x262 + x362 + x462 + x562 + x662 + x762 - d62 <= 0
x163 + x263 + x363 + x463 + x563 + x663 + x763 - d63 <= 0
x164 + x264 + x364 + x464 + x564 + x664 + x764 - d64 <= 0
x165 + x265 + x365 + x465 + x565 + x665 + x765 - d65 <= 0
x166 + x266 + x366 + x466 + x566 + x666 + x766 - d66 <= 0
x167 + x267 + x367 + x467 + x567 + x667 + x767 - d67 <= 0
transit nodes: 
x111 + x211 + x311 + x411 + x511 + x611 + x711 + x112 + x212 + x312 + x412 + x512 + x612 + x712 + x113 + x213 + x313 + x413 + x513 + x613 + x713 + x114 + x214 + x314 + x414 + x514 + x614 + x714 + x115 + x215 + x315 + x415 + x515 + x615 + x715 + x116 + x216 + x316 + x416 + x516 + x616 + x716 + x117 + x217 + x317 + x417 + x517 + x617 + x717 - r <= 0
x121 + x221 + x321 + x421 + x521 + x621 + x721 + x122 + x222 + x322 + x422 + x522 + x622 + x722 + x123 + x223 + x323 + x423 + x523 + x623 + x723 + x124 + x224 + x324 + x424 + x524 + x624 + x724 + x125 + x225 + x325 + x425 + x525 + x625 + x725 + x126 + x226 + x326 + x426 + x526 + x626 + x726 + x127 + x227 + x327 + x427 + x527 + x627 + x727 - r <= 0
x131 + x231 + x331 + x431 + x531 + x631 + x731 + x132 + x232 + x332 + x432 + x532 + x632 + x732 + x133 + x233 + x333 + x433 + x533 + x633 + x733 + x134 + x234 + x334 + x434 + x534 + x634 + x734 + x135 + x235 + x335 + x435 + x535 + x635 + x735 + x136 + x236 + x336 + x436 + x536 + x636 + x736 + x137 + x237 + x337 + x437 + x537 + x637 + x737 - r <= 0
x141 + x241 + x341 + x441 + x541 + x641 + x741 + x142 + x242 + x342 + x442 + x542 + x642 + x742 + x143 + x243 + x343 + x443 + x543 + x643 + x743 + x144 + x244 + x344 + x444 + x544 + x644 + x744 + x145 + x245 + x345 + x445 + x545 + x645 + x745 + x146 + x246 + x346 + x446 + x546 + x646 + x746 + x147 + x247 + x347 + x447 + x547 + x647 + x747 - r <= 0
x151 + x251 + x351 + x451 + x551 + x651 + x751 + x152 + x252 + x352 + x452 + x552 + x652 + x752 + x153 + x253 + x353 + x453 + x553 + x653 + x753 + x154 + x254 + x354 + x454 + x554 + x654 + x754 + x155 + x255 + x355 + x455 + x555 + x655 + x755 + x156 + x256 + x356 + x456 + x556 + x656 + x756 + x157 + x257 + x357 + x457 + x557 + x657 + x757 - r <= 0
x161 + x261 + x361 + x461 + x561 + x661 + x761 + x162 + x262 + x362 + x462 + x562 + x662 + x762 + x163 + x263 + x363 + x463 + x563 + x663 + x763 + x164 + x264 + x364 + x464 + x564 + x664 + x764 + x165 + x265 + x365 + x465 + x565 + x665 + x765 + x166 + x266 + x366 + x466 + x566 + x666 + x766 + x167 + x267 + x367 + x467 + x567 + x667 + x767 - r <= 0
binary variables: 
u111 + u121 + u131 + u141 + u151 + u161 = 3
u112 + u122 + u132 + u142 + u152 + u162 = 3
u113 + u123 + u133 + u143 + u153 + u163 = 3
u114 + u124 + u134 + u144 + u154 + u164 = 3
u115 + u125 + u135 + u145 + u155 + u165 = 3
u116 + u126 + u136 + u146 + u156 + u166 = 3
u117 + u127 + u137 + u147 + u157 + u167 = 3
u211 + u221 + u231 + u241 + u251 + u261 = 3
u212 + u222 + u232 + u242 + u252 + u262 = 3
u213 + u223 + u233 + u243 + u253 + u263 = 3
u214 + u224 + u234 + u244 + u254 + u264 = 3
u215 + u225 + u235 + u245 + u255 + u265 = 3
u216 + u226 + u236 + u246 + u256 + u266 = 3
u217 + u227 + u237 + u247 + u257 + u267 = 3
u311 + u321 + u331 + u341 + u351 + u361 = 3
u312 + u322 + u332 + u342 + u352 + u362 = 3
u313 + u323 + u333 + u343 + u353 + u363 = 3
u314 + u324 + u334 + u344 + u354 + u364 = 3
u315 + u325 + u335 + u345 + u355 + u365 = 3
u316 + u326 + u336 + u346 + u356 + u366 = 3
u317 + u327 + u337 + u347 + u357 + u367 = 3
u411 + u421 + u431 + u441 + u451 + u461 = 3
u412 + u422 + u432 + u442 + u452 + u462 = 3
u413 + u423 + u433 + u443 + u453 + u463 = 3
u414 + u424 + u434 + u444 + u454 + u464 = 3
u415 + u425 + u435 + u445 + u455 + u465 = 3
u416 + u426 + u436 + u446 + u456 + u466 = 3
u417 + u427 + u437 + u447 + u457 + u467 = 3
u511 + u521 + u531 + u541 + u551 + u561 = 3
u512 + u522 + u532 + u542 + u552 + u562 = 3
u513 + u523 + u533 + u543 + u553 + u563 = 3
u514 + u524 + u534 + u544 + u554 + u564 = 3
u515 + u525 + u535 + u545 + u555 + u565 = 3
u516 + u526 + u536 + u546 + u556 + u566 = 3
u517 + u527 + u537 + u547 + u557 + u567 = 3
u611 + u621 + u631 + u641 + u651 + u661 = 3
u612 + u622 + u632 + u642 + u652 + u662 = 3
u613 + u623 + u633 + u643 + u653 + u663 = 3
u614 + u624 + u634 + u644 + u654 + u664 = 3
u615 + u625 + u635 + u645 + u655 + u665 = 3
u616 + u626 + u636 + u646 + u656 + u666 = 3
u617 + u627 + u637 + u647 + u657 + u667 = 3
u711 + u721 + u731 + u741 + u751 + u761 = 3
u712 + u722 + u732 + u742 + u752 + u762 = 3
u713 + u723 + u733 + u743 + u753 + u763 = 3
u714 + u724 + u734 + u744 + u754 + u764 = 3
u715 + u725 + u735 + u745 + u755 + u765 = 3
u716 + u726 + u736 + u746 + u756 + u766 = 3
u717 + u727 + u737 + u747 + u757 + u767 = 3
demand flow: 
3 x111 - 2 u111 = 0
3 x121 - 2 u121 = 0
3 x131 - 2 u131 = 0
3 x141 - 2 u141 = 0
3 x151 - 2 u151 = 0
3 x161 - 2 u161 = 0
3 x112 - 3 u112 = 0
3 x122 - 3 u122 = 0
3 x132 - 3 u132 = 0
3 x142 - 3 u142 = 0
3 x152 - 3 u152 = 0
3 x162 - 3 u162 = 0
3 x113 - 4 u113 = 0
3 x123 - 4 u123 = 0
3 x133 - 4 u133 = 0
3 x143 - 4 u143 = 0
3 x153 - 4 u153 = 0
3 x163 - 4 u163 = 0
3 x114 - 5 u114 = 0
3 x124 - 5 u124 = 0
3 x134 - 5 u134 = 0
3 x144 - 5 u144 = 0
3 x154 - 5 u154 = 0
3 x164 - 5 u164 = 0
3 x115 - 6 u115 = 0
3 x125 - 6 u125 = 0
3 x135 - 6 u135 = 0
3 x145 - 6 u145 = 0
3 x155 - 6 u155 = 0
3 x165 - 6 u165 = 0
3 x116 - 7 u116 = 0
3 x126 - 7 u126 = 0
3 x136 - 7 u136 = 0
3 x146 - 7 u146 = 0
3 x156 - 7 u156 = 0
3 x166 - 7 u166 = 0
3 x117 - 8 u117 = 0
3 x127 - 8 u127 = 0
3 x137 - 8 u137 = 0
3 x147 - 8 u147 = 0
3 x157 - 8 u157 = 0
3 x167 - 8 u167 = 0
3 x211 - 3 u211 = 0
3 x221 - 3 u221 = 0
3 x231 - 3 u231 = 0
3 x241 - 3 u241 = 0
3 x251 - 3 u251 = 0
3 x261 - 3 u261 = 0
3 x212 - 4 u212 = 0
3 x222 - 4 u222 = 0
3 x232 - 4 u232 = 0
3 x242 - 4 u242 = 0
3 x252 - 4 u252 = 0
3 x262 - 4 u262 = 0
3 x213 - 5 u213 = 0
3 x223 - 5 u223 = 0
3 x233 - 5 u233 = 0
3 x243 - 5 u243 = 0
3 x253 - 5 u253 = 0
3 x263 - 5 u263 = 0
3 x214 - 6 u214 = 0
3 x224 - 6 u224 = 0
3 x234 - 6 u234 = 0
3 x244 - 6 u244 = 0
3 x254 - 6 u254 = 0
3 x264 - 6 u264 = 0
3 x215 - 7 u215 = 0
3 x225 - 7 u225 = 0
3 x235 - 7 u235 = 0
3 x245 - 7 u245 = 0
3 x255 - 7 u255 = 0
3 x265 - 7 u265 = 0
3 x216 - 8 u216 = 0
3 x226 - 8 u226 = 0
3 x236 - 8 u236 = 0
3 x246 - 8 u246 = 0
3 x256 - 8 u256 = 0
3 x266 - 8 u266 = 0
3 x217 - 9 u217 = 0
3 x227 - 9 u227 = 0
3 x237 - 9 u237 = 0
3 x247 - 9 u247 = 0
3 x257 - 9 u257 = 0
3 x267 - 9 u267 = 0
3 x311 - 4 u311 = 0
3 x321 - 4 u321 = 0
3 x331 - 4 u331 = 0
3 x341 - 4 u341 = 0
3 x351 - 4 u351 = 0
3 x361 - 4 u361 = 0
3 x312 - 5 u312 = 0
3 x322 - 5 u322 = 0
3 x332 - 5 u332 = 0
3 x342 - 5 u342 = 0
3 x352 - 5 u352 = 0
3 x362 - 5 u362 = 0
3 x313 - 6 u313 = 0
3 x323 - 6 u323 = 0
3 x333 - 6 u333 = 0
3 x343 - 6 u343 = 0
3 x353 - 6 u353 = 0
3 x363 - 6 u363 = 0
3 x314 - 7 u314 = 0
3 x324 - 7 u324 = 0
3 x334 - 7 u334 = 0
3 x344 - 7 u344 = 0
3 x354 - 7 u354 = 0
3 x364 - 7 u364 = 0
3 x315 - 8 u315 = 0
3 x325 - 8 u325 = 0
3 x335 - 8 u335 = 0
3 x345 - 8 u345 = 0
3 x355 - 8 u355 = 0
3 x365 - 8 u365 = 0
3 x316 - 9 u316 = 0
3 x326 - 9 u326 = 0
3 x336 - 9 u336 = 0
3 x346 - 9 u346 = 0
3 x356 - 9 u356 = 0
3 x366 - 9 u366 = 0
3 x317 - 10 u317 = 0
3 x327 - 10 u327 = 0
3 x337 - 10 u337 = 0
3 x347 - 10 u347 = 0
3 x357 - 10 u357 = 0
3 x367 - 10 u367 = 0
3 x411 - 5 u411 = 0
3 x421 - 5 u421 = 0
3 x431 - 5 u431 = 0
3 x441 - 5 u441 = 0
3 x451 - 5 u451 = 0
3 x461 - 5 u461 = 0
3 x412 - 6 u412 = 0
3 x422 - 6 u422 = 0
3 x432 - 6 u432 = 0
3 x442 - 6 u442 = 0
3 x452 - 6 u452 = 0
3 x462 - 6 u462 = 0
3 x413 - 7 u413 = 0
3 x423 - 7 u423 = 0
3 x433 - 7 u433 = 0
3 x443 - 7 u443 = 0
3 x453 - 7 u453 = 0
3 x463 - 7 u463 = 0
3 x414 - 8 u414 = 0
3 x424 - 8 u424 = 0
3 x434 - 8 u434 = 0
3 x444 - 8 u444 = 0
3 x454 - 8 u454 = 0
3 x464 - 8 u464 = 0
3 x415 - 9 u415 = 0
3 x425 - 9 u425 = 0
3 x435 - 9 u435 = 0
3 x445 - 9 u445 = 0
3 x455 - 9 u455 = 0
3 x465 - 9 u465 = 0
3 x416 - 10 u416 = 0
3 x426 - 10 u426 = 0
3 x436 - 10 u436 = 0
3 x446 - 10 u446 = 0
3 x456 - 10 u456 = 0
3 x466 - 10 u466 = 0
3 x417 - 11 u417 = 0
3 x427 - 11 u427 = 0
3 x437 - 11 u437 = 0
3 x447 - 11 u447 = 0
3 x457 - 11 u457 = 0
3 x467 - 11 u467 = 0
3 x511 - 6 u511 = 0
3 x521 - 6 u521 = 0
3 x531 - 6 u531 = 0
3 x541 - 6 u541 = 0
3 x551 - 6 u551 = 0
3 x561 - 6 u561 = 0
3 x512 - 7 u512 = 0
3 x522 - 7 u522 = 0
3 x532 - 7 u532 = 0
3 x542 - 7 u542 = 0
3 x552 - 7 u552 = 0
3 x562 - 7 u562 = 0
3 x513 - 8 u513 = 0
3 x523 - 8 u523 = 0
3 x533 - 8 u533 = 0
3 x543 - 8 u543 = 0
3 x553 - 8 u553 = 0
3 x563 - 8 u563 = 0
3 x514 - 9 u514 = 0
3 x524 - 9 u524 = 0
3 x534 - 9 u534 = 0
3 x544 - 9 u544 = 0
3 x554 - 9 u554 = 0
3 x564 - 9 u564 = 0
3 x515 - 10 u515 = 0
3 x525 - 10 u525 = 0
3 x535 - 10 u535 = 0
3 x545 - 10 u545 = 0
3 x555 - 10 u555 = 0
3 x565 - 10 u565 = 0
3 x516 - 11 u516 = 0
3 x526 - 11 u526 = 0
3 x536 - 11 u536 = 0
3 x546 - 11 u546 = 0
3 x556 - 11 u556 = 0
3 x566 - 11 u566 = 0
3 x517 - 12 u517 = 0
3 x527 - 12 u527 = 0
3 x537 - 12 u537 = 0
3 x547 - 12 u547 = 0
3 x557 - 12 u557 = 0
3 x567 - 12 u567 = 0
3 x611 - 7 u611 = 0
3 x621 - 7 u621 = 0
3 x631 - 7 u631 = 0
3 x641 - 7 u641 = 0
3 x651 - 7 u651 = 0
3 x661 - 7 u661 = 0
3 x612 - 8 u612 = 0
3 x622 - 8 u622 = 0
3 x632 - 8 u632 = 0
3 x642 - 8 u642 = 0
3 x652 - 8 u652 = 0
3 x662 - 8 u662 = 0
3 x613 - 9 u613 = 0
3 x623 - 9 u623 = 0
3 x633 - 9 u633 = 0
3 x643 - 9 u643 = 0
3 x653 - 9 u653 = 0
3 x663 - 9 u663 = 0
3 x614 - 10 u614 = 0
3 x624 - 10 u624 = 0
3 x634 - 10 u634 = 0
3 x644 - 10 u644 = 0
3 x654 - 10 u654 = 0
3 x664 - 10 u664 = 0
3 x615 - 11 u615 = 0
3 x625 - 11 u625 = 0
3 x635 - 11 u635 = 0
3 x645 - 11 u645 = 0
3 x655 - 11 u655 = 0
3 x665 - 11 u665 = 0
3 x616 - 12 u616 = 0
3 x626 - 12 u626 = 0
3 x636 - 12 u636 = 0
3 x646 - 12 u646 = 0
3 x656 - 12 u656 = 0
3 x666 - 12 u666 = 0
3 x617 - 13 u617 = 0
3 x627 - 13 u627 = 0
3 x637 - 13 u637 = 0
3 x647 - 13 u647 = 0
3 x657 - 13 u657 = 0
3 x667 - 13 u667 = 0
3 x711 - 8 u711 = 0
3 x721 - 8 u721 = 0
3 x731 - 8 u731 = 0
3 x741 - 8 u741 = 0
3 x751 - 8 u751 = 0
3 x761 - 8 u761 = 0
3 x712 - 9 u712 = 0
3 x722 - 9 u722 = 0
3 x732 - 9 u732 = 0
3 x742 - 9 u742 = 0
3 x752 - 9 u752 = 0
3 x762 - 9 u762 = 0
3 x713 - 10 u713 = 0
3 x723 - 10 u723 = 0
3 x733 - 10 u733 = 0
3 x743 - 10 u743 = 0
3 x753 - 10 u753 = 0
3 x763 - 10 u763 = 0
3 x714 - 11 u714 = 0
3 x724 - 11 u724 = 0
3 x734 - 11 u734 = 0
3 x744 - 11 u744 = 0
3 x754 - 11 u754 = 0
3 x764 - 11 u764 = 0
3 x715 - 12 u715 = 0
3 x725 - 12 u725 = 0
3 x735 - 12 u735 = 0
3 x745 - 12 u745 = 0
3 x755 - 12 u755 = 0
3 x765 - 12 u765 = 0
3 x716 - 13 u716 = 0
3 x726 - 13 u726 = 0
3 x736 - 13 u736 = 0
3 x746 - 13 u746 = 0
3 x756 - 13 u756 = 0
3 x766 - 13 u766 = 0
3 x717 - 14 u717 = 0
3 x727 - 14 u727 = 0
3 x737 - 14 u737 = 0
3 x747 - 14 u747 = 0
3 x757 - 14 u757 = 0
3 x767 - 14 u767 = 0
Bounds
0 <= x111
0 <= x121
0 <= x131
0 <= x141
0 <= x151
0 <= x161
0 <= x112
0 <= x122
0 <= x132
0 <= x142
0 <= x152
0 <= x162
0 <= x113
0 <= x123
0 <= x133
0 <= x143
0 <= x153
0 <= x163
0 <= x114
0 <= x124
0 <= x134
0 <= x144
0 <= x154
0 <= x164
0 <= x115
0 <= x125
0 <= x135
0 <= x145
0 <= x155
0 <= x165
0 <= x116
0 <= x126
0 <= x136
0 <= x146
0 <= x156
0 <= x166
0 <= x117
0 <= x127
0 <= x137
0 <= x147
0 <= x157
0 <= x167
0 <= x211
0 <= x221
0 <= x231
0 <= x241
0 <= x251
0 <= x261
0 <= x212
0 <= x222
0 <= x232
0 <= x242
0 <= x252
0 <= x262
0 <= x213
0 <= x223
0 <= x233
0 <= x243
0 <= x253
0 <= x263
0 <= x214
0 <= x224
0 <= x234
0 <= x244
0 <= x254
0 <= x264
0 <= x215
0 <= x225
0 <= x235
0 <= x245
0 <= x255
0 <= x265
0 <= x216
0 <= x226
0 <= x236
0 <= x246
0 <= x256
0 <= x266
0 <= x217
0 <= x227
0 <= x237
0 <= x247
0 <= x257
0 <= x267
0 <= x311
0 <= x321
0 <= x331
0 <= x341
0 <= x351
0 <= x361
0 <= x312
0 <= x322
0 <= x332
0 <= x342
0 <= x352
0 <= x362
0 <= x313
0 <= x323
0 <= x333
0 <= x343
0 <= x353
0 <= x363
0 <= x314
0 <= x324
0 <= x334
0 <= x344
0 <= x354
0 <= x364
0 <= x315
0 <= x325
0 <= x335
0 <= x345
0 <= x355
0 <= x365
0 <= x316
0 <= x326
0 <= x336
0 <= x346
0 <= x356
0 <= x366
0 <= x317
0 <= x327
0 <= x337
0 <= x347
0 <= x357
0 <= x367
0 <= x411
0 <= x421
0 <= x431
0 <= x441
0 <= x451
0 <= x461
0 <= x412
0 <= x422
0 <= x432
0 <= x442
0 <= x452
0 <= x462
0 <= x413
0 <= x423
0 <= x433
0 <= x443
0 <= x453
0 <= x463
0 <= x414
0 <= x424
0 <= x434
0 <= x444
0 <= x454
0 <= x464
0 <= x415
0 <= x425
0 <= x435
0 <= x445
0 <= x455
0 <= x465
0 <= x416
0 <= x426
0 <= x436
0 <= x446
0 <= x456
0 <= x466
0 <= x417
0 <= x427
0 <= x437
0 <= x447
0 <= x457
0 <= x467
0 <= x511
0 <= x521
0 <= x531
0 <= x541
0 <= x551
0 <= x561
0 <= x512
0 <= x522
0 <= x532
0 <= x542
0 <= x552
0 <= x562
0 <= x513
0 <= x523
0 <= x533
0 <= x543
0 <= x553
0 <= x563
0 <= x514
0 <= x524
0 <= x534
0 <= x544
0 <= x554
0 <= x564
0 <= x515
0 <= x525
0 <= x535
0 <= x545
0 <= x555
0 <= x565
0 <= x516
0 <= x526
0 <= x536
0 <= x546
0 <= x556
0 <= x566
0 <= x517
0 <= x527
0 <= x537
0 <= x547
0 <= x557
0 <= x567
0 <= x611
0 <= x621
0 <= x631
0 <= x641
0 <= x651
0 <= x661
0 <= x612
0 <= x622
0 <= x632
0 <= x642
0 <= x652
0 <= x662
0 <= x613
0 <= x623
0 <= x633
0 <= x643
0 <= x653
0 <= x663
0 <= x614
0 <= x624
0 <= x634
0 <= x644
0 <= x654
0 <= x664
0 <= x615
0 <= x625
0 <= x635
0 <= x645
0 <= x655
0 <= x665
0 <= x616
0 <= x626
0 <= x636
0 <= x646
0 <= x656
0 <= x666
0 <= x617
0 <= x627
0 <= x637
0 <= x647
0 <= x657
0 <= x667
0 <= x711
0 <= x721
0 <= x731
0 <= x741
0 <= x751
0 <= x761
0 <= x712
0 <= x722
0 <= x732
0 <= x742
0 <= x752
0 <= x762
0 <= x713
0 <= x723
0 <= x733
0 <= x743
0 <= x753
0 <= x763
0 <= x714
0 <= x724
0 <= x734
0 <= x744
0 <= x754
0 <= x764
0 <= x715
0 <= x725
0 <= x735
0 <= x745
0 <= x755
0 <= x765
0 <= x716
0 <= x726
0 <= x736
0 <= x746
0 <= x756
0 <= x766
0 <= x717
0 <= x727
0 <= x737
0 <= x747
0 <= x757
0 <= x767
0 <= r
Binaries
u111
u112
u113
u114
u115
u116
u117
u121
u122
u123
u124
u125
u126
u127
u131
u132
u133
u134
u135
u136
u137
u141
u142
u143
u144
u145
u146
u147
u151
u152
u153
u154
u155
u156
u157
u161
u162
u163
u164
u165
u166
u167
u211
u212
u213
u214
u215
u216
u217
u221
u222
u223
u224
u225
u226
u227
u231
u232
u233
u234
u235
u236
u237
u241
u242
u243
u244
u245
u246
u247
u251
u252
u253
u254
u255
u256
u257
u261
u262
u263
u264
u265
u266
u267
u311
u312
u313
u314
u315
u316
u317
u321
u322
u323
u324
u325
u326
u327
u331
u332
u333
u334
u335
u336
u337
u341
u342
u343
u344
u345
u346
u347
u351
u352
u353
u354
u355
u356
u357
u361
u362
u363
u364
u365
u366
u367
u411
u412
u413
u414
u415
u416
u417
u421
u422
u423
u424
u425
u426
u427
u431
u432
u433
u434
u435
u436
u437
u441
u442
u443
u444
u445
u446
u447
u451
u452
u453
u454
u455
u456
u457
u461
u462
u463
u464
u465
u466
u467
u511
u512
u513
u514
u515
u516
u517
u521
u522
u523
u524
u525
u526
u527
u531
u532
u533
u534
u535
u536
u537
u541
u542
u543
u544
u545
u546
u547
u551
u552
u553
u554
u555
u556
u557
u561
u562
u563
u564
u565
u566
u567
u611
u612
u613
u614
u615
u616
u617
u621
u622
u623
u624
u625
u626
u627
u631
u632
u633
u634
u635
u636
u637
u641
u642
u643
u644
u645
u646
u647
u651
u652
u653
u654
u655
u656
u657
u661
u662
u663
u664
u665
u666
u667
u711
u712
u713
u714
u715
u716
u717
u721
u722
u723
u724
u725
u726
u727
u731
u732
u733
u734
u735
u736
u737
u741
u742
u743
u744
u745
u746
u747
u751
u752
u753
u754
u755
u756
u757
u761
u762
u763
u764
u765
u766
u767

End